TK1/4/assign_2_per_operator.dat
set O := O1 O2 O3;
set M := 1 2 3 4 5 6;

param cap :=
O1 2
O2 2
O3 2 ;

param cost:
          1   2   3   4   5   6 :=
O1       75  80  80  60  75  65
O2       70  70  90  80  85  75
O3       80  75  70  95  80  85 ;
